c nIsolatedPIs 0
c maxPI 32
p cnf 294 787
c gate 33 8 -24 0
8 -33 0
-24 -33 0
-8 24 33 0
c gate 34 9 -25 0
9 -34 0
-25 -34 0
-9 25 34 0
c gate 35 -33 -34 0
-33 -35 0
-34 -35 0
33 34 35 0
c gate 36 -10 -26 0
-10 -36 0
-26 -36 0
10 26 36 0
c gate 37 10 26 0
10 -37 0
26 -37 0
-10 -26 37 0
c gate 38 -36 -37 0
-36 -38 0
-37 -38 0
36 37 38 0
c gate 39 -35 -38 0
-35 -39 0
-38 -39 0
35 38 39 0
c gate 40 35 38 0
35 -40 0
38 -40 0
-35 -38 40 0
c gate 41 -39 -40 0
-39 -41 0
-40 -41 0
39 40 41 0
c gate 42 -9 25 0
-9 -42 0
25 -42 0
9 -25 42 0
c gate 43 7 -23 0
7 -43 0
-23 -43 0
-7 23 43 0
c gate 44 6 -22 0
6 -44 0
-22 -44 0
-6 22 44 0
c gate 45 5 -21 0
5 -45 0
-21 -45 0
-5 21 45 0
c gate 46 -3 19 0
-3 -46 0
19 -46 0
3 -19 46 0
c gate 47 -2 18 0
-2 -47 0
18 -47 0
2 -18 47 0
c gate 48 -1 17 0
-1 -48 0
17 -48 0
1 -17 48 0
c gate 49 -47 -48 0
-47 -49 0
-48 -49 0
47 48 49 0
c gate 50 2 -18 0
2 -50 0
-18 -50 0
-2 18 50 0
c gate 51 3 -19 0
3 -51 0
-19 -51 0
-3 19 51 0
c gate 52 -50 -51 0
-50 -52 0
-51 -52 0
50 51 52 0
c gate 53 -49 52 0
-49 -53 0
52 -53 0
49 -52 53 0
c gate 54 -46 -53 0
-46 -54 0
-53 -54 0
46 53 54 0
c gate 55 4 -20 0
4 -55 0
-20 -55 0
-4 20 55 0
c gate 56 -54 -55 0
-54 -56 0
-55 -56 0
54 55 56 0
c gate 57 -4 20 0
-4 -57 0
20 -57 0
4 -20 57 0
c gate 58 -56 -57 0
-56 -58 0
-57 -58 0
56 57 58 0
c gate 59 -45 -58 0
-45 -59 0
-58 -59 0
45 58 59 0
c gate 60 -6 -22 0
-6 -60 0
-22 -60 0
6 22 60 0
c gate 61 6 22 0
6 -61 0
22 -61 0
-6 -22 61 0
c gate 62 -60 -61 0
-60 -62 0
-61 -62 0
60 61 62 0
c gate 63 -5 21 0
-5 -63 0
21 -63 0
5 -21 63 0
c gate 64 -62 -63 0
-62 -64 0
-63 -64 0
62 63 64 0
c gate 65 -59 64 0
-59 -65 0
64 -65 0
59 -64 65 0
c gate 66 -44 -65 0
-44 -66 0
-65 -66 0
44 65 66 0
c gate 67 -7 -23 0
-7 -67 0
-23 -67 0
7 23 67 0
c gate 68 7 23 0
7 -68 0
23 -68 0
-7 -23 68 0
c gate 69 -67 -68 0
-67 -69 0
-68 -69 0
67 68 69 0
c gate 70 -66 -69 0
-66 -70 0
-69 -70 0
66 69 70 0
c gate 71 -43 -70 0
-43 -71 0
-70 -71 0
43 70 71 0
c gate 72 8 24 0
8 -72 0
24 -72 0
-8 -24 72 0
c gate 73 -8 -24 0
-8 -73 0
-24 -73 0
8 24 73 0
c gate 74 -72 -73 0
-72 -74 0
-73 -74 0
72 73 74 0
c gate 75 -71 -74 0
-71 -75 0
-74 -75 0
71 74 75 0
c gate 76 35 -75 0
35 -76 0
-75 -76 0
-35 75 76 0
c gate 77 -42 -76 0
-42 -77 0
-76 -77 0
42 76 77 0
c gate 78 -38 -77 0
-38 -78 0
-77 -78 0
38 77 78 0
c gate 79 38 77 0
38 -79 0
77 -79 0
-38 -77 79 0
c gate 80 -78 -79 0
-78 -80 0
-79 -80 0
78 79 80 0
c gate 81 41 80 0
41 -81 0
80 -81 0
-41 -80 81 0
c gate 82 -41 -80 0
-41 -82 0
-80 -82 0
41 80 82 0
c gate 83 -81 -82 0
-81 -83 0
-82 -83 0
81 82 83 0
c gate 84 -34 -42 0
-34 -84 0
-42 -84 0
34 42 84 0
c gate 85 75 84 0
75 -85 0
84 -85 0
-75 -84 85 0
c gate 86 -70 -75 0
-70 -86 0
-75 -86 0
70 75 86 0
c gate 87 5 21 0
5 -87 0
21 -87 0
-5 -21 87 0
c gate 88 -45 -63 0
-45 -88 0
-63 -88 0
45 63 88 0
c gate 89 -87 88 0
-87 -89 0
88 -89 0
87 -88 89 0
c gate 90 -58 89 0
-58 -90 0
89 -90 0
58 -89 90 0
c gate 91 62 90 0
62 -91 0
90 -91 0
-62 -90 91 0
c gate 92 -65 -91 0
-65 -92 0
-91 -92 0
65 91 92 0
c gate 93 -70 92 0
-70 -93 0
92 -93 0
70 -92 93 0
c gate 94 -89 93 0
-89 -94 0
93 -94 0
89 -93 94 0
c gate 95 -16 -32 0
-16 -95 0
-32 -95 0
16 32 95 0
c gate 96 16 32 0
16 -96 0
32 -96 0
-16 -32 96 0
c gate 97 -95 -96 0
-95 -97 0
-96 -97 0
95 96 97 0
c gate 98 15 31 0
15 -98 0
31 -98 0
-15 -31 98 0
c gate 99 -14 -30 0
-14 -99 0
-30 -99 0
14 30 99 0
c gate 100 14 -30 0
14 -100 0
-30 -100 0
-14 30 100 0
c gate 101 -14 30 0
-14 -101 0
30 -101 0
14 -30 101 0
c gate 102 -100 -101 0
-100 -102 0
-101 -102 0
100 101 102 0
c gate 103 -13 -29 0
-13 -103 0
-29 -103 0
13 29 103 0
c gate 104 13 29 0
13 -104 0
29 -104 0
-13 -29 104 0
c gate 105 12 28 0
12 -105 0
28 -105 0
-12 -28 105 0
c gate 106 4 20 0
4 -106 0
20 -106 0
-4 -20 106 0
c gate 107 -4 -20 0
-4 -107 0
-20 -107 0
4 20 107 0
c gate 108 3 19 0
3 -108 0
19 -108 0
-3 -19 108 0
c gate 109 1 17 0
1 -109 0
17 -109 0
-1 -17 109 0
c gate 110 2 18 0
2 -110 0
18 -110 0
-2 -18 110 0
c gate 111 -109 -110 0
-109 -111 0
-110 -111 0
109 110 111 0
c gate 112 -46 -51 0
-46 -112 0
-51 -112 0
46 51 112 0
c gate 113 -111 -112 0
-111 -113 0
-112 -113 0
111 112 113 0
c gate 114 -108 -113 0
-108 -114 0
-113 -114 0
108 113 114 0
c gate 115 -107 -114 0
-107 -115 0
-114 -115 0
107 114 115 0
c gate 116 -106 -115 0
-106 -116 0
-115 -116 0
106 115 116 0
c gate 117 -2 -18 0
-2 -117 0
-18 -117 0
2 18 117 0
c gate 118 -108 117 0
-108 -118 0
117 -118 0
108 -117 118 0
c gate 119 -106 118 0
-106 -119 0
118 -119 0
106 -118 119 0
c gate 120 -116 -119 0
-116 -120 0
-119 -120 0
116 119 120 0
c gate 121 -88 120 0
-88 -121 0
120 -121 0
88 -120 121 0
c gate 122 -87 -121 0
-87 -122 0
-121 -122 0
87 121 122 0
c gate 123 62 122 0
62 -123 0
122 -123 0
-62 -122 123 0
c gate 124 -60 -123 0
-60 -124 0
-123 -124 0
60 123 124 0
c gate 125 69 -124 0
69 -125 0
-124 -125 0
-69 124 125 0
c gate 126 -67 -73 0
-67 -126 0
-73 -126 0
67 73 126 0
c gate 127 -125 126 0
-125 -127 0
126 -127 0
125 -126 127 0
c gate 128 9 25 0
9 -128 0
25 -128 0
-9 -25 128 0
c gate 129 -72 -128 0
-72 -129 0
-128 -129 0
72 128 129 0
c gate 130 -127 129 0
-127 -130 0
129 -130 0
127 -129 130 0
c gate 131 -9 -25 0
-9 -131 0
-25 -131 0
9 25 131 0
c gate 132 -36 -131 0
-36 -132 0
-131 -132 0
36 131 132 0
c gate 133 -130 132 0
-130 -133 0
132 -133 0
130 -132 133 0
c gate 134 11 27 0
11 -134 0
27 -134 0
-11 -27 134 0
c gate 135 -37 -134 0
-37 -135 0
-134 -135 0
37 134 135 0
c gate 136 -133 135 0
-133 -136 0
135 -136 0
133 -135 136 0
c gate 137 -11 -27 0
-11 -137 0
-27 -137 0
11 27 137 0
c gate 138 -12 -28 0
-12 -138 0
-28 -138 0
12 28 138 0
c gate 139 -137 -138 0
-137 -139 0
-138 -139 0
137 138 139 0
c gate 140 -136 139 0
-136 -140 0
139 -140 0
136 -139 140 0
c gate 141 -105 -140 0
-105 -141 0
-140 -141 0
105 140 141 0
c gate 142 -104 141 0
-104 -142 0
141 -142 0
104 -141 142 0
c gate 143 -103 -142 0
-103 -143 0
-142 -143 0
103 142 143 0
c gate 144 -102 -143 0
-102 -144 0
-143 -144 0
102 143 144 0
c gate 145 -99 -144 0
-99 -145 0
-144 -145 0
99 144 145 0
c gate 146 -15 31 0
-15 -146 0
31 -146 0
15 -31 146 0
c gate 147 15 -31 0
15 -147 0
-31 -147 0
-15 31 147 0
c gate 148 -146 -147 0
-146 -148 0
-147 -148 0
146 147 148 0
c gate 149 145 -148 0
145 -149 0
-148 -149 0
-145 148 149 0
c gate 150 -98 -149 0
-98 -150 0
-149 -150 0
98 149 150 0
c gate 151 97 150 0
97 -151 0
150 -151 0
-97 -150 151 0
c gate 152 -97 -150 0
-97 -152 0
-150 -152 0
97 150 152 0
c gate 153 -151 -152 0
-151 -153 0
-152 -153 0
151 152 153 0
c gate 154 -104 -105 0
-104 -154 0
-105 -154 0
104 105 154 0
c gate 155 -102 154 0
-102 -155 0
154 -155 0
102 -154 155 0
c gate 156 -99 -155 0
-99 -156 0
-155 -156 0
99 155 156 0
c gate 157 -98 -156 0
-98 -157 0
-156 -157 0
98 156 157 0
c gate 158 97 157 0
97 -158 0
157 -158 0
-97 -157 158 0
c gate 159 -97 -157 0
-97 -159 0
-157 -159 0
97 157 159 0
c gate 160 -158 -159 0
-158 -160 0
-159 -160 0
158 159 160 0
c gate 161 153 -160 0
153 -161 0
-160 -161 0
-153 160 161 0
c gate 162 -153 160 0
-153 -162 0
160 -162 0
153 -160 162 0
c gate 163 -161 -162 0
-161 -163 0
-162 -163 0
161 162 163 0
c gate 164 97 -163 0
97 -164 0
-163 -164 0
-97 163 164 0
c gate 165 94 -164 0
94 -165 0
-164 -165 0
-94 164 165 0
c gate 166 74 125 0
74 -166 0
125 -166 0
-74 -125 166 0
c gate 167 -47 109 0
-47 -167 0
109 -167 0
47 -109 167 0
c gate 168 -50 167 0
-50 -168 0
167 -168 0
50 -167 168 0
c gate 169 88 -120 0
88 -169 0
-120 -169 0
-88 120 169 0
c gate 170 -121 -169 0
-121 -170 0
-169 -170 0
121 169 170 0
c gate 171 87 -116 0
87 -171 0
-116 -171 0
-87 116 171 0
c gate 172 -87 116 0
-87 -172 0
116 -172 0
87 -116 172 0
c gate 173 -171 -172 0
-171 -173 0
-172 -173 0
171 172 173 0
c gate 174 170 173 0
170 -174 0
173 -174 0
-170 -173 174 0
c gate 175 -170 -173 0
-170 -175 0
-173 -175 0
170 173 175 0
c gate 176 -174 -175 0
-174 -176 0
-175 -176 0
174 175 176 0
c gate 177 109 117 0
109 -177 0
117 -177 0
-109 -117 177 0
c gate 178 112 177 0
112 -178 0
177 -178 0
-112 -177 178 0
c gate 179 -106 -107 0
-106 -179 0
-107 -179 0
106 107 179 0
c gate 180 118 -179 0
118 -180 0
-179 -180 0
-118 179 180 0
c gate 181 -114 180 0
-114 -181 0
180 -181 0
114 -180 181 0
c gate 182 -178 -181 0
-178 -182 0
-181 -182 0
178 181 182 0
c gate 183 176 182 0
176 -183 0
182 -183 0
-176 -182 183 0
c gate 184 -62 116 0
-62 -184 0
116 -184 0
62 -116 184 0
c gate 185 122 -184 0
122 -185 0
-184 -185 0
-122 184 185 0
c gate 186 183 -185 0
183 -186 0
-185 -186 0
-183 185 186 0
c gate 187 168 186 0
168 -187 0
186 -187 0
-168 -186 187 0
c gate 188 -125 187 0
-125 -188 0
187 -188 0
125 -187 188 0
c gate 189 -166 -188 0
-166 -189 0
-188 -189 0
166 188 189 0
c gate 190 -145 148 0
-145 -190 0
148 -190 0
145 -148 190 0
c gate 191 -149 -190 0
-149 -191 0
-190 -191 0
149 190 191 0
c gate 192 148 156 0
148 -192 0
156 -192 0
-148 -156 192 0
c gate 193 -148 -156 0
-148 -193 0
-156 -193 0
148 156 193 0
c gate 194 -192 -193 0
-192 -194 0
-193 -194 0
192 193 194 0
c gate 195 -191 -194 0
-191 -195 0
-194 -195 0
191 194 195 0
c gate 196 191 194 0
191 -196 0
194 -196 0
-191 -194 196 0
c gate 197 -103 -104 0
-103 -197 0
-104 -197 0
103 104 197 0
c gate 198 105 197 0
105 -198 0
197 -198 0
-105 -197 198 0
c gate 199 -141 -198 0
-141 -199 0
-198 -199 0
141 198 199 0
c gate 200 -196 -199 0
-196 -200 0
-199 -200 0
196 199 200 0
c gate 201 -195 200 0
-195 -201 0
200 -201 0
195 -200 201 0
c gate 202 163 201 0
163 -202 0
201 -202 0
-163 -201 202 0
c gate 203 189 202 0
189 -203 0
202 -203 0
-189 -202 203 0
c gate 204 -134 -137 0
-134 -204 0
-137 -204 0
134 137 204 0
c gate 205 38 204 0
38 -205 0
204 -205 0
-38 -204 205 0
c gate 206 12 -28 0
12 -206 0
-28 -206 0
-12 28 206 0
c gate 207 -12 28 0
-12 -207 0
28 -207 0
12 -28 207 0
c gate 208 -206 -207 0
-206 -208 0
-207 -208 0
206 207 208 0
c gate 209 -84 -208 0
-84 -209 0
-208 -209 0
84 208 209 0
c gate 210 205 209 0
205 -210 0
209 -210 0
-205 -209 210 0
c gate 211 166 -210 0
166 -211 0
-210 -211 0
-166 210 211 0
c gate 212 202 -211 0
202 -212 0
-211 -212 0
-202 211 212 0
c gate 213 102 -154 0
102 -213 0
-154 -213 0
-102 154 213 0
c gate 214 -155 -213 0
-155 -214 0
-213 -214 0
155 213 214 0
c gate 215 102 143 0
102 -215 0
143 -215 0
-102 -143 215 0
c gate 216 -144 -215 0
-144 -216 0
-215 -216 0
144 215 216 0
c gate 217 -214 216 0
-214 -217 0
216 -217 0
214 -216 217 0
c gate 218 -141 -197 0
-141 -218 0
-197 -218 0
141 197 218 0
c gate 219 -217 218 0
-217 -219 0
218 -219 0
217 -218 219 0
c gate 220 214 -216 0
214 -220 0
-216 -220 0
-214 216 220 0
c gate 221 -219 -220 0
-219 -221 0
-220 -221 0
219 220 221 0
c gate 222 -196 221 0
-196 -222 0
221 -222 0
196 -221 222 0
c gate 223 -195 -222 0
-195 -223 0
-222 -223 0
195 222 223 0
c gate 224 -161 223 0
-161 -224 0
223 -224 0
161 -223 224 0
c gate 225 -162 -224 0
-162 -225 0
-224 -225 0
162 224 225 0
c gate 226 -212 225 0
-212 -226 0
225 -226 0
212 -225 226 0
c gate 227 -203 -226 0
-203 -227 0
-226 -227 0
203 226 227 0
c gate 228 165 -227 0
165 -228 0
-227 -228 0
-165 227 228 0
c gate 229 94 -158 0
94 -229 0
-158 -229 0
-94 158 229 0
c gate 230 151 229 0
151 -230 0
229 -230 0
-151 -229 230 0
c gate 231 90 93 0
90 -231 0
93 -231 0
-90 -93 231 0
c gate 232 65 69 0
65 -232 0
69 -232 0
-65 -69 232 0
c gate 233 -231 -232 0
-231 -233 0
-232 -233 0
231 232 233 0
c gate 234 -230 233 0
-230 -234 0
233 -234 0
230 -233 234 0
c gate 235 -165 234 0
-165 -235 0
234 -235 0
165 -234 235 0
c gate 236 -228 -235 0
-228 -236 0
-235 -236 0
228 235 236 0
c gate 237 86 -236 0
86 -237 0
-236 -237 0
-86 236 237 0
c gate 238 -85 -237 0
-85 -238 0
-237 -238 0
85 237 238 0
c gate 239 11 -27 0
11 -239 0
-27 -239 0
-11 27 239 0
c gate 240 -206 -239 0
-206 -240 0
-239 -240 0
206 239 240 0
c gate 241 -10 26 0
-10 -241 0
26 -241 0
10 -26 241 0
c gate 242 -78 -241 0
-78 -242 0
-241 -242 0
78 241 242 0
c gate 243 240 -242 0
240 -243 0
-242 -243 0
-240 242 243 0
c gate 244 204 240 0
204 -244 0
240 -244 0
-204 -240 244 0
c gate 245 -197 -207 0
-197 -245 0
-207 -245 0
197 207 245 0
c gate 246 -244 245 0
-244 -246 0
245 -246 0
244 -245 246 0
c gate 247 243 246 0
243 -247 0
246 -247 0
-243 -246 247 0
c gate 248 204 242 0
204 -248 0
242 -248 0
-204 -242 248 0
c gate 249 -204 -242 0
-204 -249 0
-242 -249 0
204 242 249 0
c gate 250 -248 -249 0
-248 -250 0
-249 -250 0
248 249 250 0
c gate 251 10 -26 0
10 -251 0
-26 -251 0
-10 26 251 0
c gate 252 -39 -251 0
-39 -252 0
-251 -252 0
39 251 252 0
c gate 253 204 -252 0
204 -253 0
-252 -253 0
-204 252 253 0
c gate 254 -250 -253 0
-250 -254 0
-253 -254 0
250 253 254 0
c gate 255 -82 -238 0
-82 -255 0
-238 -255 0
82 238 255 0
c gate 256 -81 -255 0
-81 -256 0
-255 -256 0
81 255 256 0
c gate 257 -254 -256 0
-254 -257 0
-256 -257 0
254 256 257 0
c gate 258 -242 253 0
-242 -258 0
253 -258 0
242 -253 258 0
c gate 259 -249 -258 0
-249 -259 0
-258 -259 0
249 258 259 0
c gate 260 -257 259 0
-257 -260 0
259 -260 0
257 -259 260 0
c gate 261 -247 -260 0
-247 -261 0
-260 -261 0
247 260 261 0
c gate 262 102 148 0
102 -262 0
148 -262 0
-102 -148 262 0
c gate 263 247 -262 0
247 -263 0
-262 -263 0
-247 262 263 0
c gate 264 13 -29 0
13 -264 0
-29 -264 0
-13 29 264 0
c gate 265 -100 -264 0
-100 -265 0
-264 -265 0
100 264 265 0
c gate 266 243 265 0
243 -266 0
265 -266 0
-243 -265 266 0
c gate 267 148 -266 0
148 -267 0
-266 -267 0
-148 266 267 0
c gate 268 -246 265 0
-246 -268 0
265 -268 0
246 -265 268 0
c gate 269 -101 -146 0
-101 -269 0
-146 -269 0
101 146 269 0
c gate 270 -268 269 0
-268 -270 0
269 -270 0
268 -269 270 0
c gate 271 -267 270 0
-267 -271 0
270 -271 0
267 -270 271 0
c gate 272 97 -147 0
97 -272 0
-147 -272 0
-97 147 272 0
c gate 273 271 272 0
271 -273 0
272 -273 0
-271 -272 273 0
c gate 274 -263 -273 0
-263 -274 0
-273 -274 0
263 273 274 0
c gate 275 -261 274 0
-261 -275 0
274 -275 0
261 -274 275 0
c gate 276 -238 -275 0
-238 -276 0
-275 -276 0
238 275 276 0
c gate 277 -125 186 0
-125 -277 0
186 -277 0
125 -186 277 0
c gate 278 166 210 0
166 -278 0
210 -278 0
-166 -210 278 0
c gate 279 -277 -278 0
-277 -279 0
-278 -279 0
277 278 279 0
c gate 280 202 -279 0
202 -280 0
-279 -280 0
-202 279 280 0
c gate 281 225 -280 0
225 -281 0
-280 -281 0
-225 280 281 0
c gate 282 165 -281 0
165 -282 0
-281 -282 0
-165 281 282 0
c gate 283 234 -282 0
234 -283 0
-282 -283 0
-234 282 283 0
c gate 284 86 283 0
86 -284 0
283 -284 0
-86 -283 284 0
c gate 285 275 -284 0
275 -285 0
-284 -285 0
-275 284 285 0
c gate 286 -85 285 0
-85 -286 0
285 -286 0
85 -285 286 0
c gate 287 -276 -286 0
-276 -287 0
-286 -287 0
276 286 287 0
c gate 288 83 -287 0
83 -288 0
-287 -288 0
-83 287 288 0
c gate 289 -82 275 0
-82 -289 0
275 -289 0
82 -275 289 0
c gate 290 -288 289 0
-288 -290 0
289 -290 0
288 -289 290 0
c gate 291 256 -275 0
256 -291 0
-275 -291 0
-256 275 291 0
c gate 292 -254 -258 0
-254 -292 0
-258 -292 0
254 258 292 0
c gate 293 -291 -292 0
-291 -293 0
-292 -293 0
291 292 293 0
c gate 294 -290 293 0
-290 -294 0
293 -294 0
290 -293 294 0
c PO
294 0
